c "719064.clq"
p edge 141 548
e 1 5
e 1 6
e 1 7
e 1 8
e 1 9
e 1 10
e 1 11
e 1 12
e 1 13
e 1 14
e 1 15
e 1 17
e 1 20
e 1 22
e 1 23
e 1 32
e 1 33
e 1 42
e 1 46
e 1 48
e 1 50
e 1 55
e 1 59
e 1 74
e 1 87
e 1 92
e 1 96
e 1 97
e 1 104
e 1 116
e 1 121
e 2 5
e 2 6
e 2 9
e 2 10
e 2 14
e 2 21
e 2 24
e 2 25
e 2 36
e 2 63
e 2 78
e 2 88
e 2 90
e 2 91
e 2 115
e 2 134
e 2 139
e 3 5
e 3 7
e 3 46
e 3 47
e 3 51
e 3 53
e 3 61
e 3 76
e 3 87
e 3 98
e 3 118
e 3 120
e 4 5
e 4 6
e 4 8
e 4 10
e 4 12
e 4 13
e 4 22
e 4 32
e 4 35
e 4 45
e 4 66
e 4 89
e 4 113
e 5 6
e 5 7
e 5 8
e 5 9
e 5 10
e 5 11
e 5 12
e 5 14
e 5 16
e 5 17
e 5 20
e 5 26
e 5 27
e 5 28
e 5 33
e 5 35
e 5 36
e 5 37
e 5 38
e 5 40
e 5 41
e 5 45
e 5 46
e 5 58
e 5 65
e 5 69
e 5 78
e 5 89
e 5 92
e 5 99
e 5 108
e 5 129
e 5 130
e 6 7
e 6 8
e 6 19
e 6 26
e 6 30
e 6 36
e 6 39
e 6 60
e 6 98
e 6 101
e 6 104
e 6 113
e 6 121
e 6 124
e 6 135
e 7 9
e 7 11
e 7 15
e 7 16
e 7 17
e 7 18
e 7 19
e 7 20
e 7 22
e 7 24
e 7 25
e 7 28
e 7 29
e 7 31
e 7 33
e 7 35
e 7 40
e 7 41
e 7 46
e 7 49
e 7 50
e 7 52
e 7 55
e 7 57
e 7 58
e 7 61
e 7 62
e 7 72
e 7 74
e 7 75
e 7 80
e 7 89
e 7 93
e 7 96
e 7 97
e 7 99
e 7 103
e 7 105
e 7 107
e 7 110
e 7 113
e 7 119
e 7 124
e 7 133
e 7 134
e 7 135
e 8 12
e 8 26
e 8 27
e 8 28
e 8 29
e 8 44
e 8 51
e 8 59
e 8 141
e 9 24
e 9 31
e 9 49
e 9 52
e 9 63
e 9 100
e 9 123
e 9 134
e 10 11
e 10 13
e 10 15
e 10 31
e 10 32
e 10 38
e 10 40
e 10 53
e 10 57
e 10 66
e 10 73
e 10 81
e 10 97
e 10 112
e 10 120
e 10 127
e 10 138
e 11 13
e 11 15
e 11 21
e 11 32
e 11 39
e 11 40
e 11 42
e 11 43
e 11 48
e 11 55
e 11 61
e 11 64
e 11 70
e 11 72
e 11 75
e 11 78
e 11 80
e 11 86
e 11 108
e 11 114
e 12 14
e 12 16
e 12 18
e 12 19
e 12 49
e 12 76
e 12 123
e 12 129
e 13 18
e 13 19
e 13 20
e 13 22
e 13 23
e 13 26
e 13 37
e 13 38
e 13 50
e 13 52
e 13 67
e 13 68
e 13 76
e 13 106
e 13 110
e 13 114
e 13 115
e 13 139
e 13 141
e 14 17
e 14 18
e 14 21
e 14 28
e 14 34
e 14 56
e 14 69
e 14 71
e 14 79
e 14 83
e 14 102
e 14 127
e 14 131
e 15 16
e 15 93
e 15 98
e 16 23
e 16 24
e 16 25
e 16 57
e 16 67
e 16 73
e 16 85
e 16 109
e 16 112
e 16 123
e 16 131
e 17 23
e 17 27
e 17 30
e 17 111
e 17 117
e 18 21
e 18 25
e 18 29
e 18 33
e 18 44
e 18 47
e 18 49
e 18 65
e 18 68
e 18 71
e 18 75
e 18 76
e 18 77
e 18 85
e 18 89
e 18 91
e 18 93
e 18 109
e 19 140
e 20 58
e 20 77
e 21 30
e 21 66
e 21 99
e 21 105
e 22 31
e 22 34
e 22 35
e 22 51
e 22 54
e 22 57
e 22 74
e 22 81
e 22 106
e 23 29
e 23 38
e 23 43
e 23 51
e 23 74
e 23 102
e 23 132
e 24 41
e 24 54
e 24 82
e 24 101
e 25 37
e 25 77
e 25 105
e 26 27
e 26 30
e 26 37
e 26 42
e 26 45
e 26 47
e 26 50
e 26 79
e 26 85
e 26 112
e 26 134
e 26 137
e 27 34
e 27 44
e 27 94
e 27 96
e 27 109
e 28 92
e 29 45
e 29 55
e 29 69
e 29 138
e 30 41
e 30 86
e 30 108
e 30 110
e 30 111
e 30 129
e 31 43
e 31 53
e 31 60
e 31 86
e 32 34
e 32 54
e 32 68
e 32 95
e 32 101
e 32 104
e 32 131
e 32 137
e 33 39
e 33 54
e 33 63
e 33 110
e 34 43
e 34 44
e 34 71
e 34 81
e 34 93
e 34 125
e 35 36
e 35 42
e 35 67
e 35 82
e 35 88
e 35 92
e 35 95
e 35 103
e 35 111
e 35 116
e 35 119
e 36 39
e 36 62
e 36 68
e 37 61
e 37 67
e 37 70
e 37 127
e 37 141
e 38 60
e 38 88
e 38 112
e 41 48
e 41 62
e 41 65
e 41 84
e 41 85
e 41 117
e 41 122
e 42 47
e 43 48
e 43 53
e 43 56
e 43 62
e 43 70
e 43 72
e 43 80
e 43 82
e 43 90
e 43 104
e 44 52
e 44 58
e 44 106
e 45 101
e 47 73
e 47 86
e 47 94
e 47 102
e 47 117
e 48 59
e 49 59
e 50 72
e 50 78
e 50 80
e 50 94
e 50 114
e 50 117
e 50 140
e 51 56
e 51 98
e 52 75
e 52 133
e 53 107
e 53 115
e 53 136
e 54 65
e 54 73
e 54 91
e 55 56
e 55 69
e 56 60
e 56 94
e 57 79
e 57 120
e 59 64
e 59 97
e 59 113
e 61 63
e 61 99
e 61 100
e 61 115
e 61 137
e 62 64
e 62 66
e 62 70
e 62 84
e 62 105
e 62 130
e 63 64
e 63 79
e 63 81
e 63 87
e 63 91
e 63 135
e 64 123
e 64 124
e 65 77
e 65 90
e 65 95
e 65 100
e 65 128
e 65 136
e 66 83
e 67 71
e 68 82
e 69 128
e 70 102
e 71 111
e 72 121
e 73 83
e 74 118
e 76 87
e 76 128
e 77 84
e 77 132
e 79 95
e 79 114
e 79 124
e 79 140
e 81 83
e 81 84
e 81 88
e 81 129
e 82 103
e 83 109
e 83 118
e 85 128
e 86 106
e 86 130
e 87 90
e 87 121
e 87 122
e 87 132
e 87 139
e 88 96
e 89 100
e 89 126
e 90 116
e 90 125
e 91 136
e 92 133
e 93 125
e 95 131
e 95 137
e 95 138
e 97 107
e 97 139
e 99 141
e 101 103
e 101 107
e 101 130
e 101 140
e 102 118
e 102 119
e 102 122
e 102 126
e 104 122
e 105 108
e 105 119
e 109 116
e 109 126
e 117 120
e 117 133
e 117 136
e 121 125
e 122 126
e 124 127
e 127 135
e 129 138
e 130 132
